p edge 20 47 5
v 2 4 5
v 6 3 6 7 9 10 11
v 4 12 13 19 20
v 5 1 2 14 16 17
v 3 8 15 18
e 1 3
e 1 4
e 1 6
e 1 8
e 1 9
e 1 10
e 1 15
e 2 3
e 2 4
e 2 8
e 2 15
e 2 18
e 3 12
e 3 15
e 4 11
e 5 8
e 5 9
e 6 9
e 6 11
e 6 15
e 7 13
e 7 14
e 7 15
e 7 18
e 7 20
e 8 9
e 8 16
e 8 19
e 8 20
e 9 10
e 9 12
e 9 14
e 9 15
e 9 19
e 11 12
e 11 13
e 11 15
e 11 17
e 11 19
e 12 18
e 13 20
e 14 16
e 14 17
e 14 20
e 16 18
e 16 20
e 18 20
